p cnf 448 2488
4 0
-1 0
-2 0
-3 0
-5 0
-6 0
-7 0
53 11 0
-53 -11 0
10 0
-8 0
-9 0
-11 0
-12 0
-13 0
-14 0
3 17 59 0
-3 -17 0
-3 -59 0
-17 -59 0
-15 -357 0
-15 -358 0
-15 -359 0
-16 357 0
-16 -358 0
-16 -359 0
-17 -357 0
-17 358 0
-17 -359 0
-18 357 0
-18 358 0
-18 -359 0
-19 -357 0
-19 -358 0
-19 359 0
-20 357 0
-20 -358 0
-20 359 0
-21 -357 0
-21 358 0
-21 359 0
15 16 17 18 19 20 21 0
-15 8 22 0
-15 8 64 0
-15 22 64 0
-16 9 23 0
-16 9 65 0
-16 23 65 0
-17 10 24 0
-17 10 66 0
-17 24 66 0
-18 11 25 0
-18 11 67 0
-18 25 67 0
-19 12 26 0
-19 12 68 0
-19 26 68 0
-20 13 27 0
-20 13 69 0
-20 27 69 0
-21 14 28 0
-21 14 70 0
-21 28 70 0
-15 -8 -22 -64 0
-16 -9 -23 -65 0
-17 -10 -24 -66 0
-18 -11 -25 -67 0
-19 -12 -26 -68 0
-20 -13 -27 -69 0
-21 -14 -28 -70 0
-22 -360 0
-22 -361 0
-22 -362 0
-23 360 0
-23 -361 0
-23 -362 0
-24 -360 0
-24 361 0
-24 -362 0
-25 360 0
-25 361 0
-25 -362 0
-26 -360 0
-26 -361 0
-26 362 0
-27 360 0
-27 -361 0
-27 362 0
-28 -360 0
-28 361 0
-28 362 0
22 23 24 25 26 27 28 0
-22 15 29 0
-22 15 71 0
-22 29 71 0
-23 16 30 0
-23 16 72 0
-23 30 72 0
-24 17 31 0
-24 17 73 0
-24 31 73 0
-25 18 32 0
-25 18 74 0
-25 32 74 0
-26 19 33 0
-26 19 75 0
-26 33 75 0
-27 20 34 0
-27 20 76 0
-27 34 76 0
-28 21 35 0
-28 21 77 0
-28 35 77 0
-22 -15 -29 -71 0
-23 -16 -30 -72 0
-24 -17 -31 -73 0
-25 -18 -32 -74 0
-26 -19 -33 -75 0
-27 -20 -34 -76 0
-28 -21 -35 -77 0
-29 -363 0
-29 -364 0
-29 -365 0
-30 363 0
-30 -364 0
-30 -365 0
-31 -363 0
-31 364 0
-31 -365 0
-32 363 0
-32 364 0
-32 -365 0
-33 -363 0
-33 -364 0
-33 365 0
-34 363 0
-34 -364 0
-34 365 0
-35 -363 0
-35 364 0
-35 365 0
29 30 31 32 33 34 35 0
-29 22 36 0
-29 22 78 0
-29 36 78 0
-30 23 37 0
-30 23 79 0
-30 37 79 0
-31 24 38 0
-31 24 80 0
-31 38 80 0
-32 25 39 0
-32 25 81 0
-32 39 81 0
-33 26 40 0
-33 26 82 0
-33 40 82 0
-34 27 41 0
-34 27 83 0
-34 41 83 0
-35 28 42 0
-35 28 84 0
-35 42 84 0
-29 -22 -36 -78 0
-30 -23 -37 -79 0
-31 -24 -38 -80 0
-32 -25 -39 -81 0
-33 -26 -40 -82 0
-34 -27 -41 -83 0
-35 -28 -42 -84 0
-36 -366 0
-36 -367 0
-36 -368 0
-37 366 0
-37 -367 0
-37 -368 0
-38 -366 0
-38 367 0
-38 -368 0
-39 366 0
-39 367 0
-39 -368 0
-40 -366 0
-40 -367 0
-40 368 0
-41 366 0
-41 -367 0
-41 368 0
-42 -366 0
-42 367 0
-42 368 0
36 37 38 39 40 41 42 0
-36 29 43 0
-36 29 85 0
-36 43 85 0
-37 30 44 0
-37 30 86 0
-37 44 86 0
-38 31 45 0
-38 31 87 0
-38 45 87 0
-39 32 46 0
-39 32 88 0
-39 46 88 0
-40 33 47 0
-40 33 89 0
-40 47 89 0
-41 34 48 0
-41 34 90 0
-41 48 90 0
-42 35 49 0
-42 35 91 0
-42 49 91 0
-36 -29 -43 -85 0
-37 -30 -44 -86 0
-38 -31 -45 -87 0
-39 -32 -46 -88 0
-40 -33 -47 -89 0
-41 -34 -48 -90 0
-42 -35 -49 -91 0
45 0
-43 0
-44 0
-46 0
-47 0
-48 0
-49 0
94 38 0
-94 -38 0
-50 -372 0
-50 -373 0
-50 -374 0
-51 372 0
-51 -373 0
-51 -374 0
-52 -372 0
-52 373 0
-52 -374 0
-53 372 0
-53 373 0
-53 -374 0
-54 -372 0
-54 -373 0
-54 374 0
-55 372 0
-55 -373 0
-55 374 0
-56 -372 0
-56 373 0
-56 374 0
50 51 52 53 54 55 56 0
-50 99 57 0
-50 99 1 0
-50 57 1 0
-51 100 58 0
-51 100 2 0
-51 58 2 0
-52 101 59 0
-52 101 3 0
-52 59 3 0
-53 102 60 0
-53 102 4 0
-53 60 4 0
-54 103 61 0
-54 103 5 0
-54 61 5 0
-55 104 62 0
-55 104 6 0
-55 62 6 0
-56 105 63 0
-56 105 7 0
-56 63 7 0
-50 -99 -57 -1 0
-51 -100 -58 -2 0
-52 -101 -59 -3 0
-53 -102 -60 -4 0
-54 -103 -61 -5 0
-55 -104 -62 -6 0
-56 -105 -63 -7 0
-57 -375 0
-57 -376 0
-57 -377 0
-58 375 0
-58 -376 0
-58 -377 0
-59 -375 0
-59 376 0
-59 -377 0
-60 375 0
-60 376 0
-60 -377 0
-61 -375 0
-61 -376 0
-61 377 0
-62 375 0
-62 -376 0
-62 377 0
-63 -375 0
-63 376 0
-63 377 0
57 58 59 60 61 62 63 0
-57 106 64 8 0
-57 106 64 50 0
-57 106 8 50 0
-57 64 8 50 0
-58 107 65 9 0
-58 107 65 51 0
-58 107 9 51 0
-58 65 9 51 0
-59 108 66 10 0
-59 108 66 52 0
-59 108 10 52 0
-59 66 10 52 0
-60 109 67 11 0
-60 109 67 53 0
-60 109 11 53 0
-60 67 11 53 0
-61 110 68 12 0
-61 110 68 54 0
-61 110 12 54 0
-61 68 12 54 0
-62 111 69 13 0
-62 111 69 55 0
-62 111 13 55 0
-62 69 13 55 0
-63 112 70 14 0
-63 112 70 56 0
-63 112 14 56 0
-63 70 14 56 0
-57 -106 -64 -8 0
-57 -106 -64 -50 0
-57 -106 -8 -50 0
-57 -64 -8 -50 0
-58 -107 -65 -9 0
-58 -107 -65 -51 0
-58 -107 -9 -51 0
-58 -65 -9 -51 0
-59 -108 -66 -10 0
-59 -108 -66 -52 0
-59 -108 -10 -52 0
-59 -66 -10 -52 0
-60 -109 -67 -11 0
-60 -109 -67 -53 0
-60 -109 -11 -53 0
-60 -67 -11 -53 0
-61 -110 -68 -12 0
-61 -110 -68 -54 0
-61 -110 -12 -54 0
-61 -68 -12 -54 0
-62 -111 -69 -13 0
-62 -111 -69 -55 0
-62 -111 -13 -55 0
-62 -69 -13 -55 0
-63 -112 -70 -14 0
-63 -112 -70 -56 0
-63 -112 -14 -56 0
-63 -70 -14 -56 0
-64 -378 0
-64 -379 0
-64 -380 0
-65 378 0
-65 -379 0
-65 -380 0
-66 -378 0
-66 379 0
-66 -380 0
-67 378 0
-67 379 0
-67 -380 0
-68 -378 0
-68 -379 0
-68 380 0
-69 378 0
-69 -379 0
-69 380 0
-70 -378 0
-70 379 0
-70 380 0
64 65 66 67 68 69 70 0
-64 113 71 15 0
-64 113 71 57 0
-64 113 15 57 0
-64 71 15 57 0
-65 114 72 16 0
-65 114 72 58 0
-65 114 16 58 0
-65 72 16 58 0
-66 115 73 17 0
-66 115 73 59 0
-66 115 17 59 0
-66 73 17 59 0
-67 116 74 18 0
-67 116 74 60 0
-67 116 18 60 0
-67 74 18 60 0
-68 117 75 19 0
-68 117 75 61 0
-68 117 19 61 0
-68 75 19 61 0
-69 118 76 20 0
-69 118 76 62 0
-69 118 20 62 0
-69 76 20 62 0
-70 119 77 21 0
-70 119 77 63 0
-70 119 21 63 0
-70 77 21 63 0
-64 -113 -71 -15 0
-64 -113 -71 -57 0
-64 -113 -15 -57 0
-64 -71 -15 -57 0
-65 -114 -72 -16 0
-65 -114 -72 -58 0
-65 -114 -16 -58 0
-65 -72 -16 -58 0
-66 -115 -73 -17 0
-66 -115 -73 -59 0
-66 -115 -17 -59 0
-66 -73 -17 -59 0
-67 -116 -74 -18 0
-67 -116 -74 -60 0
-67 -116 -18 -60 0
-67 -74 -18 -60 0
-68 -117 -75 -19 0
-68 -117 -75 -61 0
-68 -117 -19 -61 0
-68 -75 -19 -61 0
-69 -118 -76 -20 0
-69 -118 -76 -62 0
-69 -118 -20 -62 0
-69 -76 -20 -62 0
-70 -119 -77 -21 0
-70 -119 -77 -63 0
-70 -119 -21 -63 0
-70 -77 -21 -63 0
-71 -381 0
-71 -382 0
-71 -383 0
-72 381 0
-72 -382 0
-72 -383 0
-73 -381 0
-73 382 0
-73 -383 0
-74 381 0
-74 382 0
-74 -383 0
-75 -381 0
-75 -382 0
-75 383 0
-76 381 0
-76 -382 0
-76 383 0
-77 -381 0
-77 382 0
-77 383 0
71 72 73 74 75 76 77 0
-71 120 78 22 0
-71 120 78 64 0
-71 120 22 64 0
-71 78 22 64 0
-72 121 79 23 0
-72 121 79 65 0
-72 121 23 65 0
-72 79 23 65 0
-73 122 80 24 0
-73 122 80 66 0
-73 122 24 66 0
-73 80 24 66 0
-74 123 81 25 0
-74 123 81 67 0
-74 123 25 67 0
-74 81 25 67 0
-75 124 82 26 0
-75 124 82 68 0
-75 124 26 68 0
-75 82 26 68 0
-76 125 83 27 0
-76 125 83 69 0
-76 125 27 69 0
-76 83 27 69 0
-77 126 84 28 0
-77 126 84 70 0
-77 126 28 70 0
-77 84 28 70 0
-71 -120 -78 -22 0
-71 -120 -78 -64 0
-71 -120 -22 -64 0
-71 -78 -22 -64 0
-72 -121 -79 -23 0
-72 -121 -79 -65 0
-72 -121 -23 -65 0
-72 -79 -23 -65 0
-73 -122 -80 -24 0
-73 -122 -80 -66 0
-73 -122 -24 -66 0
-73 -80 -24 -66 0
-74 -123 -81 -25 0
-74 -123 -81 -67 0
-74 -123 -25 -67 0
-74 -81 -25 -67 0
-75 -124 -82 -26 0
-75 -124 -82 -68 0
-75 -124 -26 -68 0
-75 -82 -26 -68 0
-76 -125 -83 -27 0
-76 -125 -83 -69 0
-76 -125 -27 -69 0
-76 -83 -27 -69 0
-77 -126 -84 -28 0
-77 -126 -84 -70 0
-77 -126 -28 -70 0
-77 -84 -28 -70 0
-78 -384 0
-78 -385 0
-78 -386 0
-79 384 0
-79 -385 0
-79 -386 0
-80 -384 0
-80 385 0
-80 -386 0
-81 384 0
-81 385 0
-81 -386 0
-82 -384 0
-82 -385 0
-82 386 0
-83 384 0
-83 -385 0
-83 386 0
-84 -384 0
-84 385 0
-84 386 0
78 79 80 81 82 83 84 0
-78 127 85 29 0
-78 127 85 71 0
-78 127 29 71 0
-78 85 29 71 0
-79 128 86 30 0
-79 128 86 72 0
-79 128 30 72 0
-79 86 30 72 0
-80 129 87 31 0
-80 129 87 73 0
-80 129 31 73 0
-80 87 31 73 0
-81 130 88 32 0
-81 130 88 74 0
-81 130 32 74 0
-81 88 32 74 0
-82 131 89 33 0
-82 131 89 75 0
-82 131 33 75 0
-82 89 33 75 0
-83 132 90 34 0
-83 132 90 76 0
-83 132 34 76 0
-83 90 34 76 0
-84 133 91 35 0
-84 133 91 77 0
-84 133 35 77 0
-84 91 35 77 0
-78 -127 -85 -29 0
-78 -127 -85 -71 0
-78 -127 -29 -71 0
-78 -85 -29 -71 0
-79 -128 -86 -30 0
-79 -128 -86 -72 0
-79 -128 -30 -72 0
-79 -86 -30 -72 0
-80 -129 -87 -31 0
-80 -129 -87 -73 0
-80 -129 -31 -73 0
-80 -87 -31 -73 0
-81 -130 -88 -32 0
-81 -130 -88 -74 0
-81 -130 -32 -74 0
-81 -88 -32 -74 0
-82 -131 -89 -33 0
-82 -131 -89 -75 0
-82 -131 -33 -75 0
-82 -89 -33 -75 0
-83 -132 -90 -34 0
-83 -132 -90 -76 0
-83 -132 -34 -76 0
-83 -90 -34 -76 0
-84 -133 -91 -35 0
-84 -133 -91 -77 0
-84 -133 -35 -77 0
-84 -91 -35 -77 0
-85 -387 0
-85 -388 0
-85 -389 0
-86 387 0
-86 -388 0
-86 -389 0
-87 -387 0
-87 388 0
-87 -389 0
-88 387 0
-88 388 0
-88 -389 0
-89 -387 0
-89 -388 0
-89 389 0
-90 387 0
-90 -388 0
-90 389 0
-91 -387 0
-91 388 0
-91 389 0
85 86 87 88 89 90 91 0
-85 134 92 36 0
-85 134 92 78 0
-85 134 36 78 0
-85 92 36 78 0
-86 135 93 37 0
-86 135 93 79 0
-86 135 37 79 0
-86 93 37 79 0
-87 136 94 38 0
-87 136 94 80 0
-87 136 38 80 0
-87 94 38 80 0
-88 137 95 39 0
-88 137 95 81 0
-88 137 39 81 0
-88 95 39 81 0
-89 138 96 40 0
-89 138 96 82 0
-89 138 40 82 0
-89 96 40 82 0
-90 139 97 41 0
-90 139 97 83 0
-90 139 41 83 0
-90 97 41 83 0
-91 140 98 42 0
-91 140 98 84 0
-91 140 42 84 0
-91 98 42 84 0
-85 -134 -92 -36 0
-85 -134 -92 -78 0
-85 -134 -36 -78 0
-85 -92 -36 -78 0
-86 -135 -93 -37 0
-86 -135 -93 -79 0
-86 -135 -37 -79 0
-86 -93 -37 -79 0
-87 -136 -94 -38 0
-87 -136 -94 -80 0
-87 -136 -38 -80 0
-87 -94 -38 -80 0
-88 -137 -95 -39 0
-88 -137 -95 -81 0
-88 -137 -39 -81 0
-88 -95 -39 -81 0
-89 -138 -96 -40 0
-89 -138 -96 -82 0
-89 -138 -40 -82 0
-89 -96 -40 -82 0
-90 -139 -97 -41 0
-90 -139 -97 -83 0
-90 -139 -41 -83 0
-90 -97 -41 -83 0
-91 -140 -98 -42 0
-91 -140 -98 -84 0
-91 -140 -42 -84 0
-91 -98 -42 -84 0
93 0
-92 0
-94 0
-95 0
-96 0
-97 0
-98 0
142 86 44 0
-142 -86 0
-142 -44 0
-86 -44 0
105 0
-99 0
-100 0
-101 0
-102 0
-103 0
-104 0
154 112 56 0
-154 -112 0
-154 -56 0
-112 -56 0
109 0
-106 0
-107 0
-108 0
-110 0
-111 0
-112 0
158 116 60 102 0
-158 -116 0
-158 -60 0
-158 -102 0
-116 -60 0
-116 -102 0
-60 -102 0
-113 -399 0
-113 -400 0
-113 -401 0
-114 399 0
-114 -400 0
-114 -401 0
-115 -399 0
-115 400 0
-115 -401 0
-116 399 0
-116 400 0
-116 -401 0
-117 -399 0
-117 -400 0
-117 401 0
-118 399 0
-118 -400 0
-118 401 0
-119 -399 0
-119 400 0
-119 401 0
113 114 115 116 117 118 119 0
-113 162 120 64 0
-113 162 120 106 0
-113 162 64 106 0
-113 120 64 106 0
-114 163 121 65 0
-114 163 121 107 0
-114 163 65 107 0
-114 121 65 107 0
-115 164 122 66 0
-115 164 122 108 0
-115 164 66 108 0
-115 122 66 108 0
-116 165 123 67 0
-116 165 123 109 0
-116 165 67 109 0
-116 123 67 109 0
-117 166 124 68 0
-117 166 124 110 0
-117 166 68 110 0
-117 124 68 110 0
-118 167 125 69 0
-118 167 125 111 0
-118 167 69 111 0
-118 125 69 111 0
-119 168 126 70 0
-119 168 126 112 0
-119 168 70 112 0
-119 126 70 112 0
-113 -162 -120 -64 0
-113 -162 -120 -106 0
-113 -162 -64 -106 0
-113 -120 -64 -106 0
-114 -163 -121 -65 0
-114 -163 -121 -107 0
-114 -163 -65 -107 0
-114 -121 -65 -107 0
-115 -164 -122 -66 0
-115 -164 -122 -108 0
-115 -164 -66 -108 0
-115 -122 -66 -108 0
-116 -165 -123 -67 0
-116 -165 -123 -109 0
-116 -165 -67 -109 0
-116 -123 -67 -109 0
-117 -166 -124 -68 0
-117 -166 -124 -110 0
-117 -166 -68 -110 0
-117 -124 -68 -110 0
-118 -167 -125 -69 0
-118 -167 -125 -111 0
-118 -167 -69 -111 0
-118 -125 -69 -111 0
-119 -168 -126 -70 0
-119 -168 -126 -112 0
-119 -168 -70 -112 0
-119 -126 -70 -112 0
-120 -402 0
-120 -403 0
-120 -404 0
-121 402 0
-121 -403 0
-121 -404 0
-122 -402 0
-122 403 0
-122 -404 0
-123 402 0
-123 403 0
-123 -404 0
-124 -402 0
-124 -403 0
-124 404 0
-125 402 0
-125 -403 0
-125 404 0
-126 -402 0
-126 403 0
-126 404 0
120 121 122 123 124 125 126 0
-120 169 127 71 0
-120 169 127 113 0
-120 169 71 113 0
-120 127 71 113 0
-121 170 128 72 0
-121 170 128 114 0
-121 170 72 114 0
-121 128 72 114 0
-122 171 129 73 0
-122 171 129 115 0
-122 171 73 115 0
-122 129 73 115 0
-123 172 130 74 0
-123 172 130 116 0
-123 172 74 116 0
-123 130 74 116 0
-124 173 131 75 0
-124 173 131 117 0
-124 173 75 117 0
-124 131 75 117 0
-125 174 132 76 0
-125 174 132 118 0
-125 174 76 118 0
-125 132 76 118 0
-126 175 133 77 0
-126 175 133 119 0
-126 175 77 119 0
-126 133 77 119 0
-120 -169 -127 -71 0
-120 -169 -127 -113 0
-120 -169 -71 -113 0
-120 -127 -71 -113 0
-121 -170 -128 -72 0
-121 -170 -128 -114 0
-121 -170 -72 -114 0
-121 -128 -72 -114 0
-122 -171 -129 -73 0
-122 -171 -129 -115 0
-122 -171 -73 -115 0
-122 -129 -73 -115 0
-123 -172 -130 -74 0
-123 -172 -130 -116 0
-123 -172 -74 -116 0
-123 -130 -74 -116 0
-124 -173 -131 -75 0
-124 -173 -131 -117 0
-124 -173 -75 -117 0
-124 -131 -75 -117 0
-125 -174 -132 -76 0
-125 -174 -132 -118 0
-125 -174 -76 -118 0
-125 -132 -76 -118 0
-126 -175 -133 -77 0
-126 -175 -133 -119 0
-126 -175 -77 -119 0
-126 -133 -77 -119 0
-127 -405 0
-127 -406 0
-127 -407 0
-128 405 0
-128 -406 0
-128 -407 0
-129 -405 0
-129 406 0
-129 -407 0
-130 405 0
-130 406 0
-130 -407 0
-131 -405 0
-131 -406 0
-131 407 0
-132 405 0
-132 -406 0
-132 407 0
-133 -405 0
-133 406 0
-133 407 0
127 128 129 130 131 132 133 0
-127 176 134 78 0
-127 176 134 120 0
-127 176 78 120 0
-127 134 78 120 0
-128 177 135 79 0
-128 177 135 121 0
-128 177 79 121 0
-128 135 79 121 0
-129 178 136 80 0
-129 178 136 122 0
-129 178 80 122 0
-129 136 80 122 0
-130 179 137 81 0
-130 179 137 123 0
-130 179 81 123 0
-130 137 81 123 0
-131 180 138 82 0
-131 180 138 124 0
-131 180 82 124 0
-131 138 82 124 0
-132 181 139 83 0
-132 181 139 125 0
-132 181 83 125 0
-132 139 83 125 0
-133 182 140 84 0
-133 182 140 126 0
-133 182 84 126 0
-133 140 84 126 0
-127 -176 -134 -78 0
-127 -176 -134 -120 0
-127 -176 -78 -120 0
-127 -134 -78 -120 0
-128 -177 -135 -79 0
-128 -177 -135 -121 0
-128 -177 -79 -121 0
-128 -135 -79 -121 0
-129 -178 -136 -80 0
-129 -178 -136 -122 0
-129 -178 -80 -122 0
-129 -136 -80 -122 0
-130 -179 -137 -81 0
-130 -179 -137 -123 0
-130 -179 -81 -123 0
-130 -137 -81 -123 0
-131 -180 -138 -82 0
-131 -180 -138 -124 0
-131 -180 -82 -124 0
-131 -138 -82 -124 0
-132 -181 -139 -83 0
-132 -181 -139 -125 0
-132 -181 -83 -125 0
-132 -139 -83 -125 0
-133 -182 -140 -84 0
-133 -182 -140 -126 0
-133 -182 -84 -126 0
-133 -140 -84 -126 0
-134 -408 0
-134 -409 0
-134 -410 0
-135 408 0
-135 -409 0
-135 -410 0
-136 -408 0
-136 409 0
-136 -410 0
-137 408 0
-137 409 0
-137 -410 0
-138 -408 0
-138 -409 0
-138 410 0
-139 408 0
-139 -409 0
-139 410 0
-140 -408 0
-140 409 0
-140 410 0
134 135 136 137 138 139 140 0
-134 183 141 85 0
-134 183 141 127 0
-134 183 85 127 0
-134 141 85 127 0
-135 184 142 86 0
-135 184 142 128 0
-135 184 86 128 0
-135 142 86 128 0
-136 185 143 87 0
-136 185 143 129 0
-136 185 87 129 0
-136 143 87 129 0
-137 186 144 88 0
-137 186 144 130 0
-137 186 88 130 0
-137 144 88 130 0
-138 187 145 89 0
-138 187 145 131 0
-138 187 89 131 0
-138 145 89 131 0
-139 188 146 90 0
-139 188 146 132 0
-139 188 90 132 0
-139 146 90 132 0
-140 189 147 91 0
-140 189 147 133 0
-140 189 91 133 0
-140 147 91 133 0
-134 -183 -141 -85 0
-134 -183 -141 -127 0
-134 -183 -85 -127 0
-134 -141 -85 -127 0
-135 -184 -142 -86 0
-135 -184 -142 -128 0
-135 -184 -86 -128 0
-135 -142 -86 -128 0
-136 -185 -143 -87 0
-136 -185 -143 -129 0
-136 -185 -87 -129 0
-136 -143 -87 -129 0
-137 -186 -144 -88 0
-137 -186 -144 -130 0
-137 -186 -88 -130 0
-137 -144 -88 -130 0
-138 -187 -145 -89 0
-138 -187 -145 -131 0
-138 -187 -89 -131 0
-138 -145 -89 -131 0
-139 -188 -146 -90 0
-139 -188 -146 -132 0
-139 -188 -90 -132 0
-139 -146 -90 -132 0
-140 -189 -147 -91 0
-140 -189 -147 -133 0
-140 -189 -91 -133 0
-140 -147 -91 -133 0
145 0
-141 0
-142 0
-143 0
-144 0
-146 0
-147 0
194 138 96 0
-194 -138 0
-194 -96 0
-138 -96 0
-148 -414 0
-148 -415 0
-148 -416 0
-149 414 0
-149 -415 0
-149 -416 0
-150 -414 0
-150 415 0
-150 -416 0
-151 414 0
-151 415 0
-151 -416 0
-152 -414 0
-152 -415 0
-152 416 0
-153 414 0
-153 -415 0
-153 416 0
-154 -414 0
-154 415 0
-154 416 0
148 149 150 151 152 153 154 0
-148 197 155 0
-148 197 99 0
-148 155 99 0
-149 198 156 0
-149 198 100 0
-149 156 100 0
-150 199 157 0
-150 199 101 0
-150 157 101 0
-151 200 158 0
-151 200 102 0
-151 158 102 0
-152 201 159 0
-152 201 103 0
-152 159 103 0
-153 202 160 0
-153 202 104 0
-153 160 104 0
-154 203 161 0
-154 203 105 0
-154 161 105 0
-148 -197 -155 -99 0
-149 -198 -156 -100 0
-150 -199 -157 -101 0
-151 -200 -158 -102 0
-152 -201 -159 -103 0
-153 -202 -160 -104 0
-154 -203 -161 -105 0
160 0
-155 0
-156 0
-157 0
-158 0
-159 0
-161 0
209 167 111 153 0
-209 -167 0
-209 -111 0
-209 -153 0
-167 -111 0
-167 -153 0
-111 -153 0
-162 -420 0
-162 -421 0
-162 -422 0
-163 420 0
-163 -421 0
-163 -422 0
-164 -420 0
-164 421 0
-164 -422 0
-165 420 0
-165 421 0
-165 -422 0
-166 -420 0
-166 -421 0
-166 422 0
-167 420 0
-167 -421 0
-167 422 0
-168 -420 0
-168 421 0
-168 422 0
162 163 164 165 166 167 168 0
-162 211 169 113 0
-162 211 169 155 0
-162 211 113 155 0
-162 169 113 155 0
-163 212 170 114 0
-163 212 170 156 0
-163 212 114 156 0
-163 170 114 156 0
-164 213 171 115 0
-164 213 171 157 0
-164 213 115 157 0
-164 171 115 157 0
-165 214 172 116 0
-165 214 172 158 0
-165 214 116 158 0
-165 172 116 158 0
-166 215 173 117 0
-166 215 173 159 0
-166 215 117 159 0
-166 173 117 159 0
-167 216 174 118 0
-167 216 174 160 0
-167 216 118 160 0
-167 174 118 160 0
-168 217 175 119 0
-168 217 175 161 0
-168 217 119 161 0
-168 175 119 161 0
-162 -211 -169 -113 0
-162 -211 -169 -155 0
-162 -211 -113 -155 0
-162 -169 -113 -155 0
-163 -212 -170 -114 0
-163 -212 -170 -156 0
-163 -212 -114 -156 0
-163 -170 -114 -156 0
-164 -213 -171 -115 0
-164 -213 -171 -157 0
-164 -213 -115 -157 0
-164 -171 -115 -157 0
-165 -214 -172 -116 0
-165 -214 -172 -158 0
-165 -214 -116 -158 0
-165 -172 -116 -158 0
-166 -215 -173 -117 0
-166 -215 -173 -159 0
-166 -215 -117 -159 0
-166 -173 -117 -159 0
-167 -216 -174 -118 0
-167 -216 -174 -160 0
-167 -216 -118 -160 0
-167 -174 -118 -160 0
-168 -217 -175 -119 0
-168 -217 -175 -161 0
-168 -217 -119 -161 0
-168 -175 -119 -161 0
173 0
-169 0
-170 0
-171 0
-172 0
-174 0
-175 0
222 180 124 166 0
-222 -180 0
-222 -124 0
-222 -166 0
-180 -124 0
-180 -166 0
-124 -166 0
-176 -426 0
-176 -427 0
-176 -428 0
-177 426 0
-177 -427 0
-177 -428 0
-178 -426 0
-178 427 0
-178 -428 0
-179 426 0
-179 427 0
-179 -428 0
-180 -426 0
-180 -427 0
-180 428 0
-181 426 0
-181 -427 0
-181 428 0
-182 -426 0
-182 427 0
-182 428 0
176 177 178 179 180 181 182 0
-176 225 183 127 0
-176 225 183 169 0
-176 225 127 169 0
-176 183 127 169 0
-177 226 184 128 0
-177 226 184 170 0
-177 226 128 170 0
-177 184 128 170 0
-178 227 185 129 0
-178 227 185 171 0
-178 227 129 171 0
-178 185 129 171 0
-179 228 186 130 0
-179 228 186 172 0
-179 228 130 172 0
-179 186 130 172 0
-180 229 187 131 0
-180 229 187 173 0
-180 229 131 173 0
-180 187 131 173 0
-181 230 188 132 0
-181 230 188 174 0
-181 230 132 174 0
-181 188 132 174 0
-182 231 189 133 0
-182 231 189 175 0
-182 231 133 175 0
-182 189 133 175 0
-176 -225 -183 -127 0
-176 -225 -183 -169 0
-176 -225 -127 -169 0
-176 -183 -127 -169 0
-177 -226 -184 -128 0
-177 -226 -184 -170 0
-177 -226 -128 -170 0
-177 -184 -128 -170 0
-178 -227 -185 -129 0
-178 -227 -185 -171 0
-178 -227 -129 -171 0
-178 -185 -129 -171 0
-179 -228 -186 -130 0
-179 -228 -186 -172 0
-179 -228 -130 -172 0
-179 -186 -130 -172 0
-180 -229 -187 -131 0
-180 -229 -187 -173 0
-180 -229 -131 -173 0
-180 -187 -131 -173 0
-181 -230 -188 -132 0
-181 -230 -188 -174 0
-181 -230 -132 -174 0
-181 -188 -132 -174 0
-182 -231 -189 -133 0
-182 -231 -189 -175 0
-182 -231 -133 -175 0
-182 -189 -133 -175 0
-183 -429 0
-183 -430 0
-183 -431 0
-184 429 0
-184 -430 0
-184 -431 0
-185 -429 0
-185 430 0
-185 -431 0
-186 429 0
-186 430 0
-186 -431 0
-187 -429 0
-187 -430 0
-187 431 0
-188 429 0
-188 -430 0
-188 431 0
-189 -429 0
-189 430 0
-189 431 0
183 184 185 186 187 188 189 0
-183 232 190 134 0
-183 232 190 176 0
-183 232 134 176 0
-183 190 134 176 0
-184 233 191 135 0
-184 233 191 177 0
-184 233 135 177 0
-184 191 135 177 0
-185 234 192 136 0
-185 234 192 178 0
-185 234 136 178 0
-185 192 136 178 0
-186 235 193 137 0
-186 235 193 179 0
-186 235 137 179 0
-186 193 137 179 0
-187 236 194 138 0
-187 236 194 180 0
-187 236 138 180 0
-187 194 138 180 0
-188 237 195 139 0
-188 237 195 181 0
-188 237 139 181 0
-188 195 139 181 0
-189 238 196 140 0
-189 238 196 182 0
-189 238 140 182 0
-189 196 140 182 0
-183 -232 -190 -134 0
-183 -232 -190 -176 0
-183 -232 -134 -176 0
-183 -190 -134 -176 0
-184 -233 -191 -135 0
-184 -233 -191 -177 0
-184 -233 -135 -177 0
-184 -191 -135 -177 0
-185 -234 -192 -136 0
-185 -234 -192 -178 0
-185 -234 -136 -178 0
-185 -192 -136 -178 0
-186 -235 -193 -137 0
-186 -235 -193 -179 0
-186 -235 -137 -179 0
-186 -193 -137 -179 0
-187 -236 -194 -138 0
-187 -236 -194 -180 0
-187 -236 -138 -180 0
-187 -194 -138 -180 0
-188 -237 -195 -139 0
-188 -237 -195 -181 0
-188 -237 -139 -181 0
-188 -195 -139 -181 0
-189 -238 -196 -140 0
-189 -238 -196 -182 0
-189 -238 -140 -182 0
-189 -196 -140 -182 0
191 0
-190 0
-192 0
-193 0
-194 0
-195 0
-196 0
240 184 142 0
-240 -184 0
-240 -142 0
-184 -142 0
-197 -435 0
-197 -436 0
-197 -437 0
-198 435 0
-198 -436 0
-198 -437 0
-199 -435 0
-199 436 0
-199 -437 0
-200 435 0
-200 436 0
-200 -437 0
-201 -435 0
-201 -436 0
-201 437 0
-202 435 0
-202 -436 0
-202 437 0
-203 -435 0
-203 436 0
-203 437 0
197 198 199 200 201 202 203 0
-197 246 204 0
-197 246 148 0
-197 204 148 0
-198 247 205 0
-198 247 149 0
-198 205 149 0
-199 248 206 0
-199 248 150 0
-199 206 150 0
-200 249 207 0
-200 249 151 0
-200 207 151 0
-201 250 208 0
-201 250 152 0
-201 208 152 0
-202 251 209 0
-202 251 153 0
-202 209 153 0
-203 252 210 0
-203 252 154 0
-203 210 154 0
-197 -246 -204 -148 0
-198 -247 -205 -149 0
-199 -248 -206 -150 0
-200 -249 -207 -151 0
-201 -250 -208 -152 0
-202 -251 -209 -153 0
-203 -252 -210 -154 0
-204 -438 0
-204 -439 0
-204 -440 0
-205 438 0
-205 -439 0
-205 -440 0
-206 -438 0
-206 439 0
-206 -440 0
-207 438 0
-207 439 0
-207 -440 0
-208 -438 0
-208 -439 0
-208 440 0
-209 438 0
-209 -439 0
-209 440 0
-210 -438 0
-210 439 0
-210 440 0
204 205 206 207 208 209 210 0
-204 253 211 155 0
-204 253 211 197 0
-204 253 155 197 0
-204 211 155 197 0
-205 254 212 156 0
-205 254 212 198 0
-205 254 156 198 0
-205 212 156 198 0
-206 255 213 157 0
-206 255 213 199 0
-206 255 157 199 0
-206 213 157 199 0
-207 256 214 158 0
-207 256 214 200 0
-207 256 158 200 0
-207 214 158 200 0
-208 257 215 159 0
-208 257 215 201 0
-208 257 159 201 0
-208 215 159 201 0
-209 258 216 160 0
-209 258 216 202 0
-209 258 160 202 0
-209 216 160 202 0
-210 259 217 161 0
-210 259 217 203 0
-210 259 161 203 0
-210 217 161 203 0
-204 -253 -211 -155 0
-204 -253 -211 -197 0
-204 -253 -155 -197 0
-204 -211 -155 -197 0
-205 -254 -212 -156 0
-205 -254 -212 -198 0
-205 -254 -156 -198 0
-205 -212 -156 -198 0
-206 -255 -213 -157 0
-206 -255 -213 -199 0
-206 -255 -157 -199 0
-206 -213 -157 -199 0
-207 -256 -214 -158 0
-207 -256 -214 -200 0
-207 -256 -158 -200 0
-207 -214 -158 -200 0
-208 -257 -215 -159 0
-208 -257 -215 -201 0
-208 -257 -159 -201 0
-208 -215 -159 -201 0
-209 -258 -216 -160 0
-209 -258 -216 -202 0
-209 -258 -160 -202 0
-209 -216 -160 -202 0
-210 -259 -217 -161 0
-210 -259 -217 -203 0
-210 -259 -161 -203 0
-210 -217 -161 -203 0
-211 -441 0
-211 -442 0
-211 -443 0
-212 441 0
-212 -442 0
-212 -443 0
-213 -441 0
-213 442 0
-213 -443 0
-214 441 0
-214 442 0
-214 -443 0
-215 -441 0
-215 -442 0
-215 443 0
-216 441 0
-216 -442 0
-216 443 0
-217 -441 0
-217 442 0
-217 443 0
211 212 213 214 215 216 217 0
-211 260 218 162 0
-211 260 218 204 0
-211 260 162 204 0
-211 218 162 204 0
-212 261 219 163 0
-212 261 219 205 0
-212 261 163 205 0
-212 219 163 205 0
-213 262 220 164 0
-213 262 220 206 0
-213 262 164 206 0
-213 220 164 206 0
-214 263 221 165 0
-214 263 221 207 0
-214 263 165 207 0
-214 221 165 207 0
-215 264 222 166 0
-215 264 222 208 0
-215 264 166 208 0
-215 222 166 208 0
-216 265 223 167 0
-216 265 223 209 0
-216 265 167 209 0
-216 223 167 209 0
-217 266 224 168 0
-217 266 224 210 0
-217 266 168 210 0
-217 224 168 210 0
-211 -260 -218 -162 0
-211 -260 -218 -204 0
-211 -260 -162 -204 0
-211 -218 -162 -204 0
-212 -261 -219 -163 0
-212 -261 -219 -205 0
-212 -261 -163 -205 0
-212 -219 -163 -205 0
-213 -262 -220 -164 0
-213 -262 -220 -206 0
-213 -262 -164 -206 0
-213 -220 -164 -206 0
-214 -263 -221 -165 0
-214 -263 -221 -207 0
-214 -263 -165 -207 0
-214 -221 -165 -207 0
-215 -264 -222 -166 0
-215 -264 -222 -208 0
-215 -264 -166 -208 0
-215 -222 -166 -208 0
-216 -265 -223 -167 0
-216 -265 -223 -209 0
-216 -265 -167 -209 0
-216 -223 -167 -209 0
-217 -266 -224 -168 0
-217 -266 -224 -210 0
-217 -266 -168 -210 0
-217 -224 -168 -210 0
-218 -444 0
-218 -445 0
-218 -446 0
-219 444 0
-219 -445 0
-219 -446 0
-220 -444 0
-220 445 0
-220 -446 0
-221 444 0
-221 445 0
-221 -446 0
-222 -444 0
-222 -445 0
-222 446 0
-223 444 0
-223 -445 0
-223 446 0
-224 -444 0
-224 445 0
-224 446 0
218 219 220 221 222 223 224 0
-218 267 225 169 0
-218 267 225 211 0
-218 267 169 211 0
-218 225 169 211 0
-219 268 226 170 0
-219 268 226 212 0
-219 268 170 212 0
-219 226 170 212 0
-220 269 227 171 0
-220 269 227 213 0
-220 269 171 213 0
-220 227 171 213 0
-221 270 228 172 0
-221 270 228 214 0
-221 270 172 214 0
-221 228 172 214 0
-222 271 229 173 0
-222 271 229 215 0
-222 271 173 215 0
-222 229 173 215 0
-223 272 230 174 0
-223 272 230 216 0
-223 272 174 216 0
-223 230 174 216 0
-224 273 231 175 0
-224 273 231 217 0
-224 273 175 217 0
-224 231 175 217 0
-218 -267 -225 -169 0
-218 -267 -225 -211 0
-218 -267 -169 -211 0
-218 -225 -169 -211 0
-219 -268 -226 -170 0
-219 -268 -226 -212 0
-219 -268 -170 -212 0
-219 -226 -170 -212 0
-220 -269 -227 -171 0
-220 -269 -227 -213 0
-220 -269 -171 -213 0
-220 -227 -171 -213 0
-221 -270 -228 -172 0
-221 -270 -228 -214 0
-221 -270 -172 -214 0
-221 -228 -172 -214 0
-222 -271 -229 -173 0
-222 -271 -229 -215 0
-222 -271 -173 -215 0
-222 -229 -173 -215 0
-223 -272 -230 -174 0
-223 -272 -230 -216 0
-223 -272 -174 -216 0
-223 -230 -174 -216 0
-224 -273 -231 -175 0
-224 -273 -231 -217 0
-224 -273 -175 -217 0
-224 -231 -175 -217 0
-225 -447 0
-225 -448 0
-225 -449 0
-226 447 0
-226 -448 0
-226 -449 0
-227 -447 0
-227 448 0
-227 -449 0
-228 447 0
-228 448 0
-228 -449 0
-229 -447 0
-229 -448 0
-229 449 0
-230 447 0
-230 -448 0
-230 449 0
-231 -447 0
-231 448 0
-231 449 0
225 226 227 228 229 230 231 0
-225 274 232 176 0
-225 274 232 218 0
-225 274 176 218 0
-225 232 176 218 0
-226 275 233 177 0
-226 275 233 219 0
-226 275 177 219 0
-226 233 177 219 0
-227 276 234 178 0
-227 276 234 220 0
-227 276 178 220 0
-227 234 178 220 0
-228 277 235 179 0
-228 277 235 221 0
-228 277 179 221 0
-228 235 179 221 0
-229 278 236 180 0
-229 278 236 222 0
-229 278 180 222 0
-229 236 180 222 0
-230 279 237 181 0
-230 279 237 223 0
-230 279 181 223 0
-230 237 181 223 0
-231 280 238 182 0
-231 280 238 224 0
-231 280 182 224 0
-231 238 182 224 0
-225 -274 -232 -176 0
-225 -274 -232 -218 0
-225 -274 -176 -218 0
-225 -232 -176 -218 0
-226 -275 -233 -177 0
-226 -275 -233 -219 0
-226 -275 -177 -219 0
-226 -233 -177 -219 0
-227 -276 -234 -178 0
-227 -276 -234 -220 0
-227 -276 -178 -220 0
-227 -234 -178 -220 0
-228 -277 -235 -179 0
-228 -277 -235 -221 0
-228 -277 -179 -221 0
-228 -235 -179 -221 0
-229 -278 -236 -180 0
-229 -278 -236 -222 0
-229 -278 -180 -222 0
-229 -236 -180 -222 0
-230 -279 -237 -181 0
-230 -279 -237 -223 0
-230 -279 -181 -223 0
-230 -237 -181 -223 0
-231 -280 -238 -182 0
-231 -280 -238 -224 0
-231 -280 -182 -224 0
-231 -238 -182 -224 0
-232 -450 0
-232 -451 0
-232 -452 0
-233 450 0
-233 -451 0
-233 -452 0
-234 -450 0
-234 451 0
-234 -452 0
-235 450 0
-235 451 0
-235 -452 0
-236 -450 0
-236 -451 0
-236 452 0
-237 450 0
-237 -451 0
-237 452 0
-238 -450 0
-238 451 0
-238 452 0
232 233 234 235 236 237 238 0
-232 281 239 183 0
-232 281 239 225 0
-232 281 183 225 0
-232 239 183 225 0
-233 282 240 184 0
-233 282 240 226 0
-233 282 184 226 0
-233 240 184 226 0
-234 283 241 185 0
-234 283 241 227 0
-234 283 185 227 0
-234 241 185 227 0
-235 284 242 186 0
-235 284 242 228 0
-235 284 186 228 0
-235 242 186 228 0
-236 285 243 187 0
-236 285 243 229 0
-236 285 187 229 0
-236 243 187 229 0
-237 286 244 188 0
-237 286 244 230 0
-237 286 188 230 0
-237 244 188 230 0
-238 287 245 189 0
-238 287 245 231 0
-238 287 189 231 0
-238 245 189 231 0
-232 -281 -239 -183 0
-232 -281 -239 -225 0
-232 -281 -183 -225 0
-232 -239 -183 -225 0
-233 -282 -240 -184 0
-233 -282 -240 -226 0
-233 -282 -184 -226 0
-233 -240 -184 -226 0
-234 -283 -241 -185 0
-234 -283 -241 -227 0
-234 -283 -185 -227 0
-234 -241 -185 -227 0
-235 -284 -242 -186 0
-235 -284 -242 -228 0
-235 -284 -186 -228 0
-235 -242 -186 -228 0
-236 -285 -243 -187 0
-236 -285 -243 -229 0
-236 -285 -187 -229 0
-236 -243 -187 -229 0
-237 -286 -244 -188 0
-237 -286 -244 -230 0
-237 -286 -188 -230 0
-237 -244 -188 -230 0
-238 -287 -245 -189 0
-238 -287 -245 -231 0
-238 -287 -189 -231 0
-238 -245 -189 -231 0
245 0
-239 0
-240 0
-241 0
-242 0
-243 0
-244 0
294 238 196 0
-294 -238 0
-294 -196 0
-238 -196 0
-246 -456 0
-246 -457 0
-246 -458 0
-247 456 0
-247 -457 0
-247 -458 0
-248 -456 0
-248 457 0
-248 -458 0
-249 456 0
-249 457 0
-249 -458 0
-250 -456 0
-250 -457 0
-250 458 0
-251 456 0
-251 -457 0
-251 458 0
-252 -456 0
-252 457 0
-252 458 0
246 247 248 249 250 251 252 0
-246 295 253 0
-246 295 197 0
-246 253 197 0
-247 296 254 0
-247 296 198 0
-247 254 198 0
-248 297 255 0
-248 297 199 0
-248 255 199 0
-249 298 256 0
-249 298 200 0
-249 256 200 0
-250 299 257 0
-250 299 201 0
-250 257 201 0
-251 300 258 0
-251 300 202 0
-251 258 202 0
-252 301 259 0
-252 301 203 0
-252 259 203 0
-246 -295 -253 -197 0
-247 -296 -254 -198 0
-248 -297 -255 -199 0
-249 -298 -256 -200 0
-250 -299 -257 -201 0
-251 -300 -258 -202 0
-252 -301 -259 -203 0
-253 -459 0
-253 -460 0
-253 -461 0
-254 459 0
-254 -460 0
-254 -461 0
-255 -459 0
-255 460 0
-255 -461 0
-256 459 0
-256 460 0
-256 -461 0
-257 -459 0
-257 -460 0
-257 461 0
-258 459 0
-258 -460 0
-258 461 0
-259 -459 0
-259 460 0
-259 461 0
253 254 255 256 257 258 259 0
-253 302 260 204 0
-253 302 260 246 0
-253 302 204 246 0
-253 260 204 246 0
-254 303 261 205 0
-254 303 261 247 0
-254 303 205 247 0
-254 261 205 247 0
-255 304 262 206 0
-255 304 262 248 0
-255 304 206 248 0
-255 262 206 248 0
-256 305 263 207 0
-256 305 263 249 0
-256 305 207 249 0
-256 263 207 249 0
-257 306 264 208 0
-257 306 264 250 0
-257 306 208 250 0
-257 264 208 250 0
-258 307 265 209 0
-258 307 265 251 0
-258 307 209 251 0
-258 265 209 251 0
-259 308 266 210 0
-259 308 266 252 0
-259 308 210 252 0
-259 266 210 252 0
-253 -302 -260 -204 0
-253 -302 -260 -246 0
-253 -302 -204 -246 0
-253 -260 -204 -246 0
-254 -303 -261 -205 0
-254 -303 -261 -247 0
-254 -303 -205 -247 0
-254 -261 -205 -247 0
-255 -304 -262 -206 0
-255 -304 -262 -248 0
-255 -304 -206 -248 0
-255 -262 -206 -248 0
-256 -305 -263 -207 0
-256 -305 -263 -249 0
-256 -305 -207 -249 0
-256 -263 -207 -249 0
-257 -306 -264 -208 0
-257 -306 -264 -250 0
-257 -306 -208 -250 0
-257 -264 -208 -250 0
-258 -307 -265 -209 0
-258 -307 -265 -251 0
-258 -307 -209 -251 0
-258 -265 -209 -251 0
-259 -308 -266 -210 0
-259 -308 -266 -252 0
-259 -308 -210 -252 0
-259 -266 -210 -252 0
-260 -462 0
-260 -463 0
-260 -464 0
-261 462 0
-261 -463 0
-261 -464 0
-262 -462 0
-262 463 0
-262 -464 0
-263 462 0
-263 463 0
-263 -464 0
-264 -462 0
-264 -463 0
-264 464 0
-265 462 0
-265 -463 0
-265 464 0
-266 -462 0
-266 463 0
-266 464 0
260 261 262 263 264 265 266 0
-260 309 267 211 0
-260 309 267 253 0
-260 309 211 253 0
-260 267 211 253 0
-261 310 268 212 0
-261 310 268 254 0
-261 310 212 254 0
-261 268 212 254 0
-262 311 269 213 0
-262 311 269 255 0
-262 311 213 255 0
-262 269 213 255 0
-263 312 270 214 0
-263 312 270 256 0
-263 312 214 256 0
-263 270 214 256 0
-264 313 271 215 0
-264 313 271 257 0
-264 313 215 257 0
-264 271 215 257 0
-265 314 272 216 0
-265 314 272 258 0
-265 314 216 258 0
-265 272 216 258 0
-266 315 273 217 0
-266 315 273 259 0
-266 315 217 259 0
-266 273 217 259 0
-260 -309 -267 -211 0
-260 -309 -267 -253 0
-260 -309 -211 -253 0
-260 -267 -211 -253 0
-261 -310 -268 -212 0
-261 -310 -268 -254 0
-261 -310 -212 -254 0
-261 -268 -212 -254 0
-262 -311 -269 -213 0
-262 -311 -269 -255 0
-262 -311 -213 -255 0
-262 -269 -213 -255 0
-263 -312 -270 -214 0
-263 -312 -270 -256 0
-263 -312 -214 -256 0
-263 -270 -214 -256 0
-264 -313 -271 -215 0
-264 -313 -271 -257 0
-264 -313 -215 -257 0
-264 -271 -215 -257 0
-265 -314 -272 -216 0
-265 -314 -272 -258 0
-265 -314 -216 -258 0
-265 -272 -216 -258 0
-266 -315 -273 -217 0
-266 -315 -273 -259 0
-266 -315 -217 -259 0
-266 -273 -217 -259 0
272 0
-267 0
-268 0
-269 0
-270 0
-271 0
-273 0
321 279 223 265 0
-321 -279 0
-321 -223 0
-321 -265 0
-279 -223 0
-279 -265 0
-223 -265 0
-274 -468 0
-274 -469 0
-274 -470 0
-275 468 0
-275 -469 0
-275 -470 0
-276 -468 0
-276 469 0
-276 -470 0
-277 468 0
-277 469 0
-277 -470 0
-278 -468 0
-278 -469 0
-278 470 0
-279 468 0
-279 -469 0
-279 470 0
-280 -468 0
-280 469 0
-280 470 0
274 275 276 277 278 279 280 0
-274 323 281 225 0
-274 323 281 267 0
-274 323 225 267 0
-274 281 225 267 0
-275 324 282 226 0
-275 324 282 268 0
-275 324 226 268 0
-275 282 226 268 0
-276 325 283 227 0
-276 325 283 269 0
-276 325 227 269 0
-276 283 227 269 0
-277 326 284 228 0
-277 326 284 270 0
-277 326 228 270 0
-277 284 228 270 0
-278 327 285 229 0
-278 327 285 271 0
-278 327 229 271 0
-278 285 229 271 0
-279 328 286 230 0
-279 328 286 272 0
-279 328 230 272 0
-279 286 230 272 0
-280 329 287 231 0
-280 329 287 273 0
-280 329 231 273 0
-280 287 231 273 0
-274 -323 -281 -225 0
-274 -323 -281 -267 0
-274 -323 -225 -267 0
-274 -281 -225 -267 0
-275 -324 -282 -226 0
-275 -324 -282 -268 0
-275 -324 -226 -268 0
-275 -282 -226 -268 0
-276 -325 -283 -227 0
-276 -325 -283 -269 0
-276 -325 -227 -269 0
-276 -283 -227 -269 0
-277 -326 -284 -228 0
-277 -326 -284 -270 0
-277 -326 -228 -270 0
-277 -284 -228 -270 0
-278 -327 -285 -229 0
-278 -327 -285 -271 0
-278 -327 -229 -271 0
-278 -285 -229 -271 0
-279 -328 -286 -230 0
-279 -328 -286 -272 0
-279 -328 -230 -272 0
-279 -286 -230 -272 0
-280 -329 -287 -231 0
-280 -329 -287 -273 0
-280 -329 -231 -273 0
-280 -287 -231 -273 0
-281 -471 0
-281 -472 0
-281 -473 0
-282 471 0
-282 -472 0
-282 -473 0
-283 -471 0
-283 472 0
-283 -473 0
-284 471 0
-284 472 0
-284 -473 0
-285 -471 0
-285 -472 0
-285 473 0
-286 471 0
-286 -472 0
-286 473 0
-287 -471 0
-287 472 0
-287 473 0
281 282 283 284 285 286 287 0
-281 330 288 232 0
-281 330 288 274 0
-281 330 232 274 0
-281 288 232 274 0
-282 331 289 233 0
-282 331 289 275 0
-282 331 233 275 0
-282 289 233 275 0
-283 332 290 234 0
-283 332 290 276 0
-283 332 234 276 0
-283 290 234 276 0
-284 333 291 235 0
-284 333 291 277 0
-284 333 235 277 0
-284 291 235 277 0
-285 334 292 236 0
-285 334 292 278 0
-285 334 236 278 0
-285 292 236 278 0
-286 335 293 237 0
-286 335 293 279 0
-286 335 237 279 0
-286 293 237 279 0
-287 336 294 238 0
-287 336 294 280 0
-287 336 238 280 0
-287 294 238 280 0
-281 -330 -288 -232 0
-281 -330 -288 -274 0
-281 -330 -232 -274 0
-281 -288 -232 -274 0
-282 -331 -289 -233 0
-282 -331 -289 -275 0
-282 -331 -233 -275 0
-282 -289 -233 -275 0
-283 -332 -290 -234 0
-283 -332 -290 -276 0
-283 -332 -234 -276 0
-283 -290 -234 -276 0
-284 -333 -291 -235 0
-284 -333 -291 -277 0
-284 -333 -235 -277 0
-284 -291 -235 -277 0
-285 -334 -292 -236 0
-285 -334 -292 -278 0
-285 -334 -236 -278 0
-285 -292 -236 -278 0
-286 -335 -293 -237 0
-286 -335 -293 -279 0
-286 -335 -237 -279 0
-286 -293 -237 -279 0
-287 -336 -294 -238 0
-287 -336 -294 -280 0
-287 -336 -238 -280 0
-287 -294 -238 -280 0
288 0
-289 0
-290 0
-291 0
-292 0
-293 0
-294 0
337 281 239 0
-337 -281 0
-337 -239 0
-281 -239 0
-295 -477 0
-295 -478 0
-295 -479 0
-296 477 0
-296 -478 0
-296 -479 0
-297 -477 0
-297 478 0
-297 -479 0
-298 477 0
-298 478 0
-298 -479 0
-299 -477 0
-299 -478 0
-299 479 0
-300 477 0
-300 -478 0
-300 479 0
-301 -477 0
-301 478 0
-301 479 0
295 296 297 298 299 300 301 0
-295 246 0
-295 302 0
-296 247 0
-296 303 0
-297 248 0
-297 304 0
-298 249 0
-298 305 0
-299 250 0
-299 306 0
-300 251 0
-300 307 0
-301 252 0
-301 308 0
-302 -480 0
-302 -481 0
-302 -482 0
-303 480 0
-303 -481 0
-303 -482 0
-304 -480 0
-304 481 0
-304 -482 0
-305 480 0
-305 481 0
-305 -482 0
-306 -480 0
-306 -481 0
-306 482 0
-307 480 0
-307 -481 0
-307 482 0
-308 -480 0
-308 481 0
-308 482 0
302 303 304 305 306 307 308 0
-302 253 309 0
-302 253 295 0
-302 309 295 0
-303 254 310 0
-303 254 296 0
-303 310 296 0
-304 255 311 0
-304 255 297 0
-304 311 297 0
-305 256 312 0
-305 256 298 0
-305 312 298 0
-306 257 313 0
-306 257 299 0
-306 313 299 0
-307 258 314 0
-307 258 300 0
-307 314 300 0
-308 259 315 0
-308 259 301 0
-308 315 301 0
-302 -253 -309 -295 0
-303 -254 -310 -296 0
-304 -255 -311 -297 0
-305 -256 -312 -298 0
-306 -257 -313 -299 0
-307 -258 -314 -300 0
-308 -259 -315 -301 0
-309 -483 0
-309 -484 0
-309 -485 0
-310 483 0
-310 -484 0
-310 -485 0
-311 -483 0
-311 484 0
-311 -485 0
-312 483 0
-312 484 0
-312 -485 0
-313 -483 0
-313 -484 0
-313 485 0
-314 483 0
-314 -484 0
-314 485 0
-315 -483 0
-315 484 0
-315 485 0
309 310 311 312 313 314 315 0
-309 260 316 0
-309 260 302 0
-309 316 302 0
-310 261 317 0
-310 261 303 0
-310 317 303 0
-311 262 318 0
-311 262 304 0
-311 318 304 0
-312 263 319 0
-312 263 305 0
-312 319 305 0
-313 264 320 0
-313 264 306 0
-313 320 306 0
-314 265 321 0
-314 265 307 0
-314 321 307 0
-315 266 322 0
-315 266 308 0
-315 322 308 0
-309 -260 -316 -302 0
-310 -261 -317 -303 0
-311 -262 -318 -304 0
-312 -263 -319 -305 0
-313 -264 -320 -306 0
-314 -265 -321 -307 0
-315 -266 -322 -308 0
-316 -486 0
-316 -487 0
-316 -488 0
-317 486 0
-317 -487 0
-317 -488 0
-318 -486 0
-318 487 0
-318 -488 0
-319 486 0
-319 487 0
-319 -488 0
-320 -486 0
-320 -487 0
-320 488 0
-321 486 0
-321 -487 0
-321 488 0
-322 -486 0
-322 487 0
-322 488 0
316 317 318 319 320 321 322 0
-316 267 323 0
-316 267 309 0
-316 323 309 0
-317 268 324 0
-317 268 310 0
-317 324 310 0
-318 269 325 0
-318 269 311 0
-318 325 311 0
-319 270 326 0
-319 270 312 0
-319 326 312 0
-320 271 327 0
-320 271 313 0
-320 327 313 0
-321 272 328 0
-321 272 314 0
-321 328 314 0
-322 273 329 0
-322 273 315 0
-322 329 315 0
-316 -267 -323 -309 0
-317 -268 -324 -310 0
-318 -269 -325 -311 0
-319 -270 -326 -312 0
-320 -271 -327 -313 0
-321 -272 -328 -314 0
-322 -273 -329 -315 0
-323 -489 0
-323 -490 0
-323 -491 0
-324 489 0
-324 -490 0
-324 -491 0
-325 -489 0
-325 490 0
-325 -491 0
-326 489 0
-326 490 0
-326 -491 0
-327 -489 0
-327 -490 0
-327 491 0
-328 489 0
-328 -490 0
-328 491 0
-329 -489 0
-329 490 0
-329 491 0
323 324 325 326 327 328 329 0
-323 274 330 0
-323 274 316 0
-323 330 316 0
-324 275 331 0
-324 275 317 0
-324 331 317 0
-325 276 332 0
-325 276 318 0
-325 332 318 0
-326 277 333 0
-326 277 319 0
-326 333 319 0
-327 278 334 0
-327 278 320 0
-327 334 320 0
-328 279 335 0
-328 279 321 0
-328 335 321 0
-329 280 336 0
-329 280 322 0
-329 336 322 0
-323 -274 -330 -316 0
-324 -275 -331 -317 0
-325 -276 -332 -318 0
-326 -277 -333 -319 0
-327 -278 -334 -320 0
-328 -279 -335 -321 0
-329 -280 -336 -322 0
330 0
-331 0
-332 0
-333 0
-334 0
-335 0
-336 0
281 337 323 0
-281 -337 0
-281 -323 0
-337 -323 0
-337 -495 0
-337 -496 0
-337 -497 0
-338 495 0
-338 -496 0
-338 -497 0
-339 -495 0
-339 496 0
-339 -497 0
-340 495 0
-340 496 0
-340 -497 0
-341 -495 0
-341 -496 0
-341 497 0
-342 495 0
-342 -496 0
-342 497 0
-343 -495 0
-343 496 0
-343 497 0
337 338 339 340 341 342 343 0
-337 288 0
-337 330 0
-338 289 0
-338 331 0
-339 290 0
-339 332 0
-340 291 0
-340 333 0
-341 292 0
-341 334 0
-342 293 0
-342 335 0
-343 294 0
-343 336 0
114 121 128 135 0
17 66 115 164 213 262 311 0
24 73 122 220 318 0
31 80 129 178 227 276 325 0
38 87 136 185 234 283 0
53 60 67 74 81 88 0
33 82 131 180 229 278 327 0
40 89 138 187 236 285 0
202 209 216 223 230 237 0
20 69 118 167 216 265 314 0
154 168 182 189 0
63 210 259 308 0
21 70 119 168 217 266 315 0
28 77 126 224 322 0
35 84 133 182 231 280 329 0
42 91 140 189 238 287 0